z1,z2,z3,nondominated
3,5,4,0
8,2,4,0
1,8,7,0
2,8,4,0
1,6,8,0
6,3,3,0
6,3,4,0
6,4,2,0
6,1,7,0
2,4,9,0
4,2,7,0
2,6,4,0
2,4,9,0
8,1,8,0
6,2,6,0
9,2,4,0
6,1,8,0
8,6,1,0
2,5,6,0
4,3,4,0
2,4,7,0
4,3,5,0
5,2,8,0
8,7,1,0
3,3,7,0
8,1,6,0
7,6,1,0
4,2,7,0
6,6,2,0
7,6,1,0
3,4,10,0
9,3,3,0
5,4,3,0
9,2,5,0
5,8,1,0
3,6,4,0
3,6,4,0
3,8,3,0
6,1,7,0
3,3,6,0
5,3,4,0
5,9,2,0
8,1,7,0
3,6,4,0
4,3,5,0
5,1,7,0
4,8,2,0
5,2,9,0
4,2,9,0
1,1,1,0
1,1,1,0
1,1,1,0
1,1,1,0
1,1,1,0
1,1,1,0
1,1,1,0
